Problem:    
Rows:       260
Columns:    89 (72 integer, 72 binary)
Non-zeros:  812
Status:     INTEGER OPTIMAL
Objective:  value = 43.975533 (MINimum)

   No.   Row name        Activity     Lower bound   Upper bound
------ ------------    ------------- ------------- -------------
     1 r.5                   1043.98             0               
     2 r.6                  -990.039       -990.65               
     3 r.7                   43.9755             0               
     4 r.8                  -979.459       -980.07               
     5 r.9                   43.9755             0               
     6 r.10                  29.1849      -990.502               
     7 r.11                  1043.98             0               
     8 r.12                 -978.015      -980.083               
     9 r.13                  43.9755             0               
    10 r.14                  14.4477      -999.371               
    11 r.15                  1043.98             0               
    12 r.16                 -997.932      -998.542               
    13 r.17                  43.9755             0               
    14 r.18                  29.1849      -998.924               
    15 r.19                  1043.98             0               
    16 r.20                 -970.815      -996.286               
    17 r.21                  1043.98             0               
    18 r.22                 -985.552      -995.513               
    19 r.23                  43.9755             0               
    20 r.24                 -990.086      -990.697               
    21 r.25                  1043.98             0               
    22 r.26                 -999.389      -999.389               
    23 r.27                  43.9755             0               
    24 r.28                   0.6107      -998.637               
    25 r.29                  1043.98             0               
    26 r.30                 -956.024      -985.209               
    27 r.31                  43.9755             0               
    28 r.32                  43.9755      -961.578               
    29 r.33                  1043.98             0               
    30 r.34                 -970.815      -985.263               
    31 r.35                  43.9755             0               
    32 r.36                  43.9755      -963.126               
    33 r.37                        1             1             = 
    34 r.38                        1             1             = 
    35 r.39                        1             1             = 
    36 r.40                        1             1             = 
    37 r.41                        1             1             = 
    38 r.42                        1             1             = 
    39 r.43                        1             1             = 
    40 r.44                        1             1             = 
    41 r.45                     1001             2               
    42 r.46                    -1001         -1001               
    43 r.47                  2019.22      -990.502               
    44 r.48                     1001             2               
    45 r.49                    -1001         -1001               
    46 r.50                  3001.44      -980.083               
    47 r.51                     1001             2               
    48 r.52                    -1001         -1001               
    49 r.53                  2004.49      -999.371               
    50 r.54                     1001             2               
    51 r.55                    -1001         -1001               
    52 r.56                  2981.53      -998.542               
    53 r.57                     1001             2               
    54 r.58                    -1001         -1001               
    55 r.59                  2019.22      -998.924               
    56 r.60                     1001             2               
    57 r.61                    -1001         -1001               
    58 r.62                  3008.64      -996.286               
    59 r.63                        2             2               
    60 r.64                       -2         -1001               
    61 r.65                 -995.513      -995.513               
    62 r.66                     1000             2               
    63 r.67                    -1000         -1001               
    64 r.68                  1989.37      -990.697               
    65 r.69                  -990.65       -990.65               
    66 r.70                  -980.07       -980.07               
    67 r.71                  -990.65       -990.65               
    68 r.72                  -980.07       -980.07               
    69 r.73                 -965.985      -985.209               
    70 r.74                  34.0146      -961.578               
    71 r.75                  23.4345      -985.209               
    72 r.76                  1023.43      -961.578               
    73 r.77                 -980.776      -985.263               
    74 r.78                  34.0146      -963.126               
    75 r.79                  8.64386      -985.263               
    76 r.80                  1023.43      -963.126               
    77 r.81                     1001             2               
    78 r.82                    -1001         -1001               
    79 r.83                  1980.78        9.3502               
    80 r.84                     1001             2               
    81 r.85                    -1001         -1001               
    82 r.86                  998.556       19.9303               
    83 r.87                     1000             2               
    84 r.88                    -1000         -1001               
    85 r.89                  1985.26      -999.371               
    86 r.90                        2             2               
    87 r.91                       -2         -1001               
    88 r.92                 -19.9166      -998.542               
    89 r.93                     1000             2               
    90 r.94                    -1000         -1001               
    91 r.95                     2000      -998.924               
    92 r.96                        2             2               
    93 r.97                       -2         -1001               
    94 r.98                   -992.8      -996.286               
    95 r.99                     1001             2               
    96 r.100                   -1001         -1001               
    97 r.101                 1985.26      -995.513               
    98 r.102                    1001             2               
    99 r.103                   -1001         -1001               
   100 r.104                 987.929      -990.697               
   101 r.105                 28.5742      -990.502               
   102 r.106                -978.626      -980.083               
   103 r.107                 28.5742      -990.502               
   104 r.108                -978.626      -980.083               
   105 r.109                -985.209      -985.209               
   106 r.110                 14.7906      -961.578               
   107 r.111                -978.009      -985.209               
   108 r.112                 21.9907      -961.578               
   109 r.113                    1001             2               
   110 r.114                   -1001         -1001               
   111 r.115                    2000      -985.263               
   112 r.116                    1001             2               
   113 r.117                   -1001         -1001               
   114 r.118                 2021.99      -963.126               
   115 r.119                    1001             2               
   116 r.120                   -1001         -1001               
   117 r.121                 1995.51        9.3502               
   118 r.122                    1001             2               
   119 r.123                   -1001         -1001               
   120 r.124                 1018.47       19.9303               
   121 r.125                    1000             2               
   122 r.126                   -1000         -1001               
   123 r.127                 2014.74        9.4976               
   124 r.128                       2             2               
   125 r.129                      -2         -1001               
   126 r.130                 19.9166       19.9166               
   127 r.131                    1000             2               
   128 r.132                   -1000         -1001               
   129 r.133                 2014.74      -998.924               
   130 r.134                       2             2               
   131 r.135                      -2         -1001               
   132 r.136                -972.883      -996.286               
   133 r.137                    1001             2               
   134 r.138                   -1001         -1001               
   135 r.139                    2000      -995.513               
   136 r.140                    1001             2               
   137 r.141                   -1001         -1001               
   138 r.142                 1007.85      -990.697               
   139 r.143                  13.837      -999.371               
   140 r.144                -998.542      -998.542               
   141 r.145                  13.837      -999.371               
   142 r.146                -998.542      -998.542               
   143 r.147                -970.472      -985.209               
   144 r.148                 29.5278      -961.578               
   145 r.149                -958.093      -985.209               
   146 r.150                 41.9073      -961.578               
   147 r.151                -985.263      -985.263               
   148 r.152                 29.5278      -963.126               
   149 r.153                -972.883      -985.263               
   150 r.154                 41.9073      -963.126               
   151 r.155                    1001             2               
   152 r.156                   -1001         -1001               
   153 r.157                 1980.78        9.3502               
   154 r.158                    1001             2               
   155 r.159                   -1001         -1001               
   156 r.160                 991.356       19.9303               
   157 r.161                    1000             2               
   158 r.162                   -1000         -1001               
   159 r.163                    2000        9.4976               
   160 r.164                       2             2               
   161 r.165                      -2         -1001               
   162 r.166                   992.8       19.9166               
   163 r.167                    1000             2               
   164 r.168                   -1000         -1001               
   165 r.169                 1985.26      0.628844               
   166 r.170                       2             2               
   167 r.171                      -2         -1001               
   168 r.172                 972.883       1.45755               
   169 r.173                    1001             2               
   170 r.174                   -1001         -1001               
   171 r.175                 1985.26      -995.513               
   172 r.176                    1001             2               
   173 r.177                   -1001         -1001               
   174 r.178                 980.729      -990.697               
   175 r.179                 28.5742      -998.924               
   176 r.180                -971.426      -996.286               
   177 r.181                 28.5742      -998.924               
   178 r.182                -971.426      -996.286               
   179 r.183                -985.209      -985.209               
   180 r.184                 14.7906      -961.578               
   181 r.185                -985.209      -985.209               
   182 r.186                 14.7906      -961.578               
   183 r.187                    1001             2               
   184 r.188                   -1001         -1001               
   185 r.189                    2000      -985.263               
   186 r.190                    1001             2               
   187 r.191                   -1001         -1001               
   188 r.192                 2014.79      -963.126               
   189 r.193                       2             2               
   190 r.194                      -2         -1001               
   191 r.195                 995.513        9.3502               
   192 r.196                    1000             2               
   193 r.197                   -1000         -1001               
   194 r.198                 2010.63       19.9303               
   195 r.199                    1001             2               
   196 r.200                   -1001         -1001               
   197 r.201                 2014.74        9.4976               
   198 r.202                    1001             2               
   199 r.203                   -1001         -1001               
   200 r.204                 3012.07       19.9166               
   201 r.205                    1001             2               
   202 r.206                   -1001         -1001               
   203 r.207                    2000      0.628844               
   204 r.208                    1001             2               
   205 r.209                   -1001         -1001               
   206 r.210                 2992.15       1.45755               
   207 r.211                    1001             2               
   208 r.212                   -1001         -1001               
   209 r.213                 2014.74       1.07627               
   210 r.214                    1001             2               
   211 r.215                   -1001         -1001               
   212 r.216                 3019.27       3.71443               
   213 r.217                -986.163      -995.513               
   214 r.218                -990.697      -990.697               
   215 r.219                -986.163      -995.513               
   216 r.220                -990.697      -990.697               
   217 r.221                       2             2               
   218 r.222                      -2         -1001               
   219 r.223                -970.472      -985.209               
   220 r.224                    1000             2               
   221 r.225                   -1000         -1001               
   222 r.226                 3034.06      -961.578               
   223 r.227                -985.263      -985.263               
   224 r.228                 29.5278      -963.126               
   225 r.229                 19.2714      -985.263               
   226 r.230                 1034.06      -963.126               
   227 r.231                -956.635      -985.209               
   228 r.232                 43.3648      -961.578               
   229 r.233                -956.635      -985.209               
   230 r.234                 43.3648      -961.578               
   231 r.235                       2             2               
   232 r.236                      -2         -1001               
   233 r.237                 970.472       4.48679               
   234 r.238                    1000             2               
   235 r.239                   -1000         -1001               
   236 r.240                 965.938       9.30283               
   237 r.241                       2             2               
   238 r.242                      -2         -1001               
   239 r.243                -14.7906      -985.263               
   240 r.244                    1000             2               
   241 r.245                   -1000         -1001               
   242 r.246                    2000      -963.126               
   243 r.247                    1001             2               
   244 r.248                   -1001         -1001               
   245 r.249                    2000        9.4976               
   246 r.250                    1001             2               
   247 r.251                   -1001         -1001               
   248 r.252                 1978.01       19.9166               
   249 r.253                    1001             2               
   250 r.254                   -1001         -1001               
   251 r.255                    2000       1.07627               
   252 r.256                    1001             2               
   253 r.257                   -1001         -1001               
   254 r.258                 1985.21       3.71443               
   255 r.259                       2             2               
   256 r.260                      -2         -1001               
   257 r.261                 14.7906       14.7906               
   258 r.262                    1000             2               
   259 r.263                   -1000         -1001               
   260 r.264                    2000       38.4224               

   No. Column name       Activity     Lower bound   Upper bound
------ ------------    ------------- ------------- -------------
     1 tt                    43.9755             0               
     2 s_1_1        *              1             0             1 
     3 t_1_1                 34.0146             0               
     4 s_1_8        *              1             0             1 
     5 s_1_7        *              1             0             1 
     6 s_2_1        *              0             0             1 
     7 t_2_1                 1023.43             0               
     8 s_2_8        *              0             0             1 
     9 s_2_7        *              0             0             1 
    10 s_1_2        *              0             0             1 
    11 t_1_2                 14.7906             0               
    12 s_2_2        *              1             0             1 
    13 t_2_2                 21.9907             0               
    14 s_1_3        *              0             0             1 
    15 t_1_3                 29.5278             0               
    16 s_2_3        *              1             0             1 
    17 t_2_3                 41.9073             0               
    18 s_1_4        *              0             0             1 
    19 t_1_4                 14.7906             0               
    20 s_2_4        *              1             0             1 
    21 t_2_4                 14.7906             0               
    22 s_1_5        *              1             0             1 
    23 t_1_5                 29.5278             0               
    24 s_2_5        *              0             0             1 
    25 t_2_5                 1034.06             0               
    26 s_1_6        *              1             0             1 
    27 t_1_6                 43.3648             0               
    28 s_2_6        *              0             0             1 
    29 t_2_6                 43.3648             0               
    30 t_1_7                       0             0               
    31 t_2_7                       0             0               
    32 t_1_8                 14.7906             0               
    33 t_2_8                       0             0               
    34 r_1_1_2      *              1             0             1 
    35 u_1_1_2      *              0             0             1 
    36 r_2_1_2      *              1             0             1 
    37 u_2_1_2      *              0             0             1 
    38 r_1_1_3      *              1             0             1 
    39 u_1_1_3      *              0             0             1 
    40 r_2_1_3      *              1             0             1 
    41 u_2_1_3      *              0             0             1 
    42 r_1_1_4      *              1             0             1 
    43 u_1_1_4      *              0             0             1 
    44 r_2_1_4      *              1             0             1 
    45 u_2_1_4      *              0             0             1 
    46 r_1_1_5      *              0             0             1 
    47 u_1_1_5      *              1             0             1 
    48 r_2_1_5      *              1             0             1 
    49 u_2_1_5      *              0             0             1 
    50 r_1_2_3      *              1             0             1 
    51 u_1_2_3      *              0             0             1 
    52 r_2_2_3      *              0             0             1 
    53 u_2_2_3      *              0             0             1 
    54 r_1_2_4      *              1             0             1 
    55 u_1_2_4      *              0             0             1 
    56 r_2_2_4      *              0             0             1 
    57 u_2_2_4      *              1             0             1 
    58 r_1_2_5      *              1             0             1 
    59 u_1_2_5      *              0             0             1 
    60 r_2_2_5      *              1             0             1 
    61 u_2_2_5      *              0             0             1 
    62 r_1_2_8      *              1             0             1 
    63 u_1_2_8      *              0             0             1 
    64 r_2_2_8      *              1             0             1 
    65 u_2_2_8      *              0             0             1 
    66 r_1_3_4      *              1             0             1 
    67 u_1_3_4      *              0             0             1 
    68 r_2_3_4      *              0             0             1 
    69 u_2_3_4      *              1             0             1 
    70 r_1_3_5      *              1             0             1 
    71 u_1_3_5      *              0             0             1 
    72 r_2_3_5      *              1             0             1 
    73 u_2_3_5      *              0             0             1 
    74 r_1_4_5      *              1             0             1 
    75 u_1_4_5      *              0             0             1 
    76 r_2_4_5      *              1             0             1 
    77 u_2_4_5      *              0             0             1 
    78 r_1_4_8      *              1             0             1 
    79 u_1_4_8      *              0             0             1 
    80 r_2_4_8      *              1             0             1 
    81 u_2_4_8      *              0             0             1 
    82 r_1_5_7      *              0             0             1 
    83 u_1_5_7      *              1             0             1 
    84 r_2_5_7      *              1             0             1 
    85 u_2_5_7      *              0             0             1 
    86 r_1_7_8      *              0             0             1 
    87 u_1_7_8      *              0             0             1 
    88 r_2_7_8      *              1             0             1 
    89 u_2_7_8      *              0             0             1 

Integer feasibility conditions:

KKT.PE: max.abs.err = 4.55e-13 on row 46
        max.rel.err = 7.52e-17 on row 46
        High quality

KKT.PB: max.abs.err = 1.14e-13 on row 147
        max.rel.err = 1.15e-16 on row 147
        High quality

End of output
